/* Objective function */
max: +x_1_1 +x_1_2 +x_1_3 +x_1_4 +x_1_5 +x_1_6 +x_2_1 +x_2_2 +x_2_3 +x_2_4 +x_2_5 +x_2_6 +x_3_1 +x_3_2 +x_3_3
 +x_3_4 +x_3_5 +x_3_6 +x_4_1 +x_4_2 +x_4_3 +x_4_4 +x_4_5 +x_4_6 +x_5_1 +x_5_2 +x_5_3 +x_5_4 +x_5_5 +x_5_6
 +x_6_1 +x_6_2 +x_6_3 +x_6_4 +x_6_5 +x_6_6;

/* Constraints */
-5 x_1_1 +x_2_3 +x_3_2 >= 0;
-3 x_1_1 +x_2_3 +x_3_2 <= 2;
-5 x_1_2 +x_2_4 +x_3_1 +x_3_3 >= 0;
-2 x_1_2 +x_2_4 +x_3_1 +x_3_3 <= 3;
-5 x_1_3 +x_2_1 +x_2_5 +x_3_2 +x_3_4 >= 0;
-x_1_3 +x_2_1 +x_2_5 +x_3_2 +x_3_4 <= 4;
-5 x_1_4 +x_2_2 +x_2_6 +x_3_3 +x_3_5 >= 0;
-x_1_4 +x_2_2 +x_2_6 +x_3_3 +x_3_5 <= 4;
-5 x_1_5 +x_2_3 +x_3_4 +x_3_6 >= 0;
-2 x_1_5 +x_2_3 +x_3_4 +x_3_6 <= 3;
-5 x_1_6 +x_2_4 +x_3_5 >= 0;
-3 x_1_6 +x_2_4 +x_3_5 <= 2;
+x_1_3 -5 x_2_1 +x_3_3 +x_4_2 >= 0;
+x_1_3 -2 x_2_1 +x_3_3 +x_4_2 <= 3;
+x_1_4 -5 x_2_2 +x_3_4 +x_4_1 +x_4_3 >= 0;
+x_1_4 -x_2_2 +x_3_4 +x_4_1 +x_4_3 <= 4;
+x_1_1 +x_1_5 -5 x_2_3 +x_3_1 +x_3_5 +x_4_2 +x_4_4 >= 0;
+x_1_1 +x_1_5 +x_2_3 +x_3_1 +x_3_5 +x_4_2 +x_4_4 <= 6;
+x_1_2 +x_1_6 -5 x_2_4 +x_3_2 +x_3_6 +x_4_3 +x_4_5 >= 0;
+x_1_2 +x_1_6 +x_2_4 +x_3_2 +x_3_6 +x_4_3 +x_4_5 <= 6;
+x_1_3 -5 x_2_5 +x_3_3 +x_4_4 +x_4_6 >= 0;
+x_1_3 -x_2_5 +x_3_3 +x_4_4 +x_4_6 <= 4;
+x_1_4 -5 x_2_6 +x_3_4 +x_4_5 >= 0;
+x_1_4 -2 x_2_6 +x_3_4 +x_4_5 <= 3;
+x_1_2 +x_2_3 -5 x_3_1 +x_4_3 +x_5_2 >= 0;
+x_1_2 +x_2_3 -x_3_1 +x_4_3 +x_5_2 <= 4;
+x_1_1 +x_1_3 +x_2_4 -5 x_3_2 +x_4_4 +x_5_1 +x_5_3 >= 0;
+x_1_1 +x_1_3 +x_2_4 +x_3_2 +x_4_4 +x_5_1 +x_5_3 <= 6;
+x_1_2 +x_1_4 +x_2_1 +x_2_5 -5 x_3_3 +x_4_1 +x_4_5 +x_5_2 +x_5_4 >= 0;
+x_1_2 +x_1_4 +x_2_1 +x_2_5 +3 x_3_3 +x_4_1 +x_4_5 +x_5_2 +x_5_4 <= 8;
+x_1_3 +x_1_5 +x_2_2 +x_2_6 -5 x_3_4 +x_4_2 +x_4_6 +x_5_3 +x_5_5 >= 0;
+x_1_3 +x_1_5 +x_2_2 +x_2_6 +3 x_3_4 +x_4_2 +x_4_6 +x_5_3 +x_5_5 <= 8;
+x_1_4 +x_1_6 +x_2_3 -5 x_3_5 +x_4_3 +x_5_4 +x_5_6 >= 0;
+x_1_4 +x_1_6 +x_2_3 +x_3_5 +x_4_3 +x_5_4 +x_5_6 <= 6;
+x_1_5 +x_2_4 -5 x_3_6 +x_4_4 +x_5_5 >= 0;
+x_1_5 +x_2_4 -x_3_6 +x_4_4 +x_5_5 <= 4;
+x_2_2 +x_3_3 -5 x_4_1 +x_5_3 +x_6_2 >= 0;
+x_2_2 +x_3_3 -x_4_1 +x_5_3 +x_6_2 <= 4;
+x_2_1 +x_2_3 +x_3_4 -5 x_4_2 +x_5_4 +x_6_1 +x_6_3 >= 0;
+x_2_1 +x_2_3 +x_3_4 +x_4_2 +x_5_4 +x_6_1 +x_6_3 <= 6;
+x_2_2 +x_2_4 +x_3_1 +x_3_5 -5 x_4_3 +x_5_1 +x_5_5 +x_6_2 +x_6_4 >= 0;
+x_2_2 +x_2_4 +x_3_1 +x_3_5 +3 x_4_3 +x_5_1 +x_5_5 +x_6_2 +x_6_4 <= 8;
+x_2_3 +x_2_5 +x_3_2 +x_3_6 -5 x_4_4 +x_5_2 +x_5_6 +x_6_3 +x_6_5 >= 0;
+x_2_3 +x_2_5 +x_3_2 +x_3_6 +3 x_4_4 +x_5_2 +x_5_6 +x_6_3 +x_6_5 <= 8;
+x_2_4 +x_2_6 +x_3_3 -5 x_4_5 +x_5_3 +x_6_4 +x_6_6 >= 0;
+x_2_4 +x_2_6 +x_3_3 +x_4_5 +x_5_3 +x_6_4 +x_6_6 <= 6;
+x_2_5 +x_3_4 -5 x_4_6 +x_5_4 +x_6_5 >= 0;
+x_2_5 +x_3_4 -x_4_6 +x_5_4 +x_6_5 <= 4;
+x_3_2 +x_4_3 -5 x_5_1 +x_6_3 >= 0;
+x_3_2 +x_4_3 -2 x_5_1 +x_6_3 <= 3;
+x_3_1 +x_3_3 +x_4_4 -5 x_5_2 +x_6_4 >= 0;
+x_3_1 +x_3_3 +x_4_4 -x_5_2 +x_6_4 <= 4;
+x_3_2 +x_3_4 +x_4_1 +x_4_5 -5 x_5_3 +x_6_1 +x_6_5 >= 0;
+x_3_2 +x_3_4 +x_4_1 +x_4_5 +x_5_3 +x_6_1 +x_6_5 <= 6;
+x_3_3 +x_3_5 +x_4_2 +x_4_6 -5 x_5_4 +x_6_2 +x_6_6 >= 0;
+x_3_3 +x_3_5 +x_4_2 +x_4_6 +x_5_4 +x_6_2 +x_6_6 <= 6;
+x_3_4 +x_3_6 +x_4_3 -5 x_5_5 +x_6_3 >= 0;
+x_3_4 +x_3_6 +x_4_3 -x_5_5 +x_6_3 <= 4;
+x_3_5 +x_4_4 -5 x_5_6 +x_6_4 >= 0;
+x_3_5 +x_4_4 -2 x_5_6 +x_6_4 <= 3;
+x_4_2 +x_5_3 -5 x_6_1 >= 0;
+x_4_2 +x_5_3 -3 x_6_1 <= 2;
+x_4_1 +x_4_3 +x_5_4 -5 x_6_2 >= 0;
+x_4_1 +x_4_3 +x_5_4 -2 x_6_2 <= 3;
+x_4_2 +x_4_4 +x_5_1 +x_5_5 -5 x_6_3 >= 0;
+x_4_2 +x_4_4 +x_5_1 +x_5_5 -x_6_3 <= 4;
+x_4_3 +x_4_5 +x_5_2 +x_5_6 -5 x_6_4 >= 0;
+x_4_3 +x_4_5 +x_5_2 +x_5_6 -x_6_4 <= 4;
+x_4_4 +x_4_6 +x_5_3 -5 x_6_5 >= 0;
+x_4_4 +x_4_6 +x_5_3 -2 x_6_5 <= 3;
+x_4_5 +x_5_4 -5 x_6_6 >= 0;
+x_4_5 +x_5_4 -3 x_6_6 <= 2;
-x_1_1 -x_1_2 -x_1_3 -x_1_4 -x_1_5 -x_1_6 -x_2_1 -x_2_2 -x_2_3 -x_2_4 -x_2_5 -x_2_6 -x_3_1 -x_3_2 -x_3_3
 -x_3_4 -x_3_5 -x_3_6 +x_4_1 +x_4_2 +x_4_3 +x_4_4 +x_4_5 +x_4_6 +x_5_1 +x_5_2 +x_5_3 +x_5_4 +x_5_5 +x_5_6
 +x_6_1 +x_6_2 +x_6_3 +x_6_4 +x_6_5 +x_6_6 <= 0;

/* Variable bounds */
x_1_1 <= 1;
x_1_2 <= 1;
x_1_3 <= 1;
x_1_4 <= 1;
x_1_5 <= 1;
x_1_6 <= 1;
x_2_1 <= 1;
x_2_2 <= 1;
x_2_3 <= 1;
x_2_4 <= 1;
x_2_5 <= 1;
x_2_6 <= 1;
x_3_1 <= 1;
x_3_2 <= 1;
x_3_3 <= 1;
x_3_4 <= 1;
x_3_5 <= 1;
x_3_6 <= 1;
x_4_1 <= 1;
x_4_2 <= 1;
x_4_3 <= 1;
x_4_4 <= 1;
x_4_5 <= 1;
x_4_6 <= 1;
x_5_1 <= 1;
x_5_2 <= 1;
x_5_3 <= 1;
x_5_4 <= 1;
x_5_5 <= 1;
x_5_6 <= 1;
x_6_1 <= 1;
x_6_2 <= 1;
x_6_3 <= 1;
x_6_4 <= 1;
x_6_5 <= 1;
x_6_6 <= 1;

/* Integer definitions */
int x_1_1,x_1_2,x_1_3,x_1_4,x_1_5,x_1_6,x_2_1,x_2_2,x_2_3,x_2_4,x_2_5,x_2_6,x_3_1,x_3_2,x_3_3,x_3_4,x_3_5,x_3_6,x_4_1,x_4_2,x_4_3,x_4_4,x_4_5,x_4_6,x_5_1,x_5_2,x_5_3,x_5_4,x_5_5,x_5_6,x_6_1,x_6_2,x_6_3,x_6_4,x_6_5,x_6_6;
